words_hard_train/9236.qaiger
aag 103 24 0 1 79
2
4
8
16
18
22
24
30
32
46
48
60
62
74
76
88
90
108
122
136
150
166
176
184
207
6 2 5
10 7 8
12 6 9
14 11 13
20 17 18
26 23 24
28 21 27
34 30 33
36 16 19
38 35 37
40 28 39
42 22 25
44 41 43
50 47 48
52 46 49
54 51 53
56 45 54
58 57 53
64 61 62
66 60 63
68 65 67
70 59 68
72 71 67
78 75 76
80 74 77
82 79 81
84 73 82
86 85 81
92 89 90
94 88 91
96 93 95
98 87 96
100 99 95
102 15 101
104 14 100
106 103 105
110 109 89
112 86 97
114 113 99
116 111 115
118 110 114
120 117 119
124 123 75
126 72 83
128 127 85
130 125 129
132 124 128
134 131 133
138 137 61
140 58 69
142 141 71
144 139 142
146 138 143
148 145 147
152 151 47
154 44 55
156 155 57
158 153 156
160 152 157
162 159 161
164 149 163
168 166 17
170 169 19
172 168 18
174 171 173
178 177 25
180 26 176
182 179 181
186 184 31
188 187 33
190 186 32
192 189 191
194 192 43
196 182 194
198 174 196
200 164 198
202 134 200
204 120 202
206 106 204
i0 1 x1[7]
i1 2 y2[7]
i2 1 x2[7]
i3 2 y2[1]
i4 1 x2[1]
i5 2 y2[2]
i6 1 x2[2]
i7 2 y2[0]
i8 1 x2[0]
i9 2 y2[3]
i10 1 x2[3]
i11 2 y2[4]
i12 1 x2[4]
i13 2 y2[5]
i14 1 x2[5]
i15 2 y2[6]
i16 1 x2[6]
i17 1 x1[6]
i18 1 x1[5]
i19 1 x1[4]
i20 1 x1[3]
i21 1 x1[1]
i22 1 x1[2]
i23 1 x1[0]
o0 bool[0]
c
simplified
  !=
    add
      2 y2
      invert
        1 x2
    or
      2 y2
      1 x1
