words_hard_train/9236.qaiger.qdimacs
p cnf 103 238
a 1 4 68 38 9 75 12 45 16 83 54 24 88 92 61 31 0
e 2 3 5 6 7 8 10 11 13 14 15 17 18 19 20 21 22 23 25 26 27 28 29 30 32 33 34 35 36 37 39 40 41 42 43 44 46 47 48 49 50 51 52 53 55 56 57 58 59 60 62 63 64 65 66 67 69 70 71 72 73 74 76 77 78 79 80 81 82 84 85 86 87 89 90 91 93 94 95 96 97 98 99 100 101 102 103 0
-1 2 3 0
1 -3 0
-2 -3 0
3 -4 5 0
-3 -5 0
4 -5 0
-3 4 6 0
3 -6 0
-4 -6 0
5 6 7 0
-5 -7 0
-6 -7 0
8 -9 10 0
-8 -10 0
9 -10 0
11 -12 13 0
-11 -13 0
12 -13 0
10 13 14 0
-10 -14 0
-13 -14 0
-15 16 17 0
15 -17 0
-16 -17 0
-8 9 18 0
8 -18 0
-9 -18 0
17 18 19 0
-17 -19 0
-18 -19 0
-14 19 20 0
14 -20 0
-19 -20 0
-11 12 21 0
11 -21 0
-12 -21 0
20 21 22 0
-20 -22 0
-21 -22 0
23 -24 25 0
-23 -25 0
24 -25 0
-23 24 26 0
23 -26 0
-24 -26 0
25 26 27 0
-25 -27 0
-26 -27 0
22 -27 28 0
-22 -28 0
27 -28 0
28 26 29 0
-28 -29 0
-26 -29 0
30 -31 32 0
-30 -32 0
31 -32 0
-30 31 33 0
30 -33 0
-31 -33 0
32 33 34 0
-32 -34 0
-33 -34 0
29 -34 35 0
-29 -35 0
34 -35 0
35 33 36 0
-35 -36 0
-33 -36 0
37 -38 39 0
-37 -39 0
38 -39 0
-37 38 40 0
37 -40 0
-38 -40 0
39 40 41 0
-39 -41 0
-40 -41 0
36 -41 42 0
-36 -42 0
41 -42 0
42 40 43 0
-42 -43 0
-40 -43 0
44 -45 46 0
-44 -46 0
45 -46 0
-44 45 47 0
44 -47 0
-45 -47 0
46 47 48 0
-46 -48 0
-47 -48 0
43 -48 49 0
-43 -49 0
48 -49 0
49 47 50 0
-49 -50 0
-47 -50 0
7 50 51 0
-7 -51 0
-50 -51 0
-7 -50 52 0
7 -52 0
50 -52 0
51 52 53 0
-51 -53 0
-52 -53 0
54 44 55 0
-54 -55 0
-44 -55 0
-43 48 56 0
43 -56 0
-48 -56 0
56 49 57 0
-56 -57 0
-49 -57 0
55 57 58 0
-55 -58 0
-57 -58 0
-55 -57 59 0
55 -59 0
57 -59 0
58 59 60 0
-58 -60 0
-59 -60 0
61 37 62 0
-61 -62 0
-37 -62 0
-36 41 63 0
36 -63 0
-41 -63 0
63 42 64 0
-63 -64 0
-42 -64 0
62 64 65 0
-62 -65 0
-64 -65 0
-62 -64 66 0
62 -66 0
64 -66 0
65 66 67 0
-65 -67 0
-66 -67 0
68 30 69 0
-68 -69 0
-30 -69 0
-29 34 70 0
29 -70 0
-34 -70 0
70 35 71 0
-70 -71 0
-35 -71 0
69 -71 72 0
-69 -72 0
71 -72 0
-69 71 73 0
69 -73 0
-71 -73 0
72 73 74 0
-72 -74 0
-73 -74 0
75 23 76 0
-75 -76 0
-23 -76 0
-22 27 77 0
22 -77 0
-27 -77 0
77 28 78 0
-77 -78 0
-28 -78 0
76 -78 79 0
-76 -79 0
78 -79 0
-76 78 80 0
76 -80 0
-78 -80 0
79 80 81 0
-79 -81 0
-80 -81 0
74 81 82 0
-74 -82 0
-81 -82 0
-83 8 84 0
83 -84 0
-8 -84 0
84 9 85 0
-84 -85 0
-9 -85 0
-84 -9 86 0
84 -86 0
9 -86 0
85 86 87 0
-85 -87 0
-86 -87 0
88 12 89 0
-88 -89 0
-12 -89 0
-13 -88 90 0
13 -90 0
88 -90 0
89 90 91 0
-89 -91 0
-90 -91 0
-92 15 93 0
92 -93 0
-15 -93 0
93 16 94 0
-93 -94 0
-16 -94 0
-93 -16 95 0
93 -95 0
16 -95 0
94 95 96 0
-94 -96 0
-95 -96 0
-96 21 97 0
96 -97 0
-21 -97 0
-91 -97 98 0
91 -98 0
97 -98 0
-87 -98 99 0
87 -99 0
98 -99 0
-82 -99 100 0
82 -100 0
99 -100 0
-67 -100 101 0
67 -101 0
100 -101 0
-60 -101 102 0
60 -102 0
101 -102 0
-53 -102 103 0
53 -103 0
102 -103 0
-103 0
